!!! Generated by ASE !!!
&GLOBAL
   PROJECT cp2k
   PRINT_LEVEL LOW
&END GLOBAL
&FORCE_EVAL
   METHOD Quickstep
   STRESS_TENSOR ANALYTICAL
   &PRINT
      &STRESS_TENSOR ON
      &END STRESS_TENSOR
   &END PRINT
   &DFT
      BASIS_SET_FILE_NAME BASIS_MOLOPT
      POTENTIAL_FILE_NAME POTENTIAL
      &MGRID
         CUTOFF [eV] 5.442277204873448682e+03
      &END MGRID
      &SCF
         MAX_SCF 50
      &END SCF
      &LS_SCF
         MAX_SCF 50
      &END LS_SCF
      &XC
         &XC_FUNCTIONAL
            &PADE
            &END PADE
         &END XC_FUNCTIONAL
      &END XC
   &END DFT
   &SUBSYS
      &COORD
         Na 0.000000000000000000e+00 0.000000000000000000e+00 0.000000000000000000e+00
         Cl 2.810000000000000053e+00 2.810000000000000053e+00 2.810000000000000053e+00
         Na 0.000000000000000000e+00 2.810000000000000053e+00 2.810000000000000053e+00
         Cl 2.810000000000000053e+00 0.000000000000000000e+00 0.000000000000000000e+00
         Na 2.810000000000000053e+00 0.000000000000000000e+00 2.810000000000000053e+00
         Cl 0.000000000000000000e+00 2.810000000000000053e+00 0.000000000000000000e+00
         Na 2.810000000000000053e+00 2.810000000000000053e+00 0.000000000000000000e+00
         Cl 0.000000000000000000e+00 0.000000000000000000e+00 2.810000000000000053e+00
         Na 0.000000000000000000e+00 0.000000000000000000e+00 5.620000000000000107e+00
         Cl 2.810000000000000053e+00 2.810000000000000053e+00 8.429999999999999716e+00
         Na 0.000000000000000000e+00 2.810000000000000053e+00 8.429999999999999716e+00
         Cl 2.810000000000000053e+00 0.000000000000000000e+00 5.620000000000000107e+00
         Na 2.810000000000000053e+00 0.000000000000000000e+00 8.429999999999999716e+00
         Cl 0.000000000000000000e+00 2.810000000000000053e+00 5.620000000000000107e+00
         Na 2.810000000000000053e+00 2.810000000000000053e+00 5.620000000000000107e+00
         Cl 0.000000000000000000e+00 0.000000000000000000e+00 8.429999999999999716e+00
         Na 0.000000000000000000e+00 0.000000000000000000e+00 1.124000000000000021e+01
         Cl 2.810000000000000053e+00 2.810000000000000053e+00 1.405000000000000071e+01
         Na 0.000000000000000000e+00 2.810000000000000053e+00 1.405000000000000071e+01
         Cl 2.810000000000000053e+00 0.000000000000000000e+00 1.124000000000000021e+01
         Na 2.810000000000000053e+00 0.000000000000000000e+00 1.405000000000000071e+01
         Cl 0.000000000000000000e+00 2.810000000000000053e+00 1.124000000000000021e+01
         Na 2.810000000000000053e+00 2.810000000000000053e+00 1.124000000000000021e+01
         Cl 0.000000000000000000e+00 0.000000000000000000e+00 1.405000000000000071e+01
         Na 0.000000000000000000e+00 0.000000000000000000e+00 1.685999999999999943e+01
         Cl 2.810000000000000053e+00 2.810000000000000053e+00 1.967000000000000171e+01
         Na 0.000000000000000000e+00 2.810000000000000053e+00 1.967000000000000171e+01
         Cl 2.810000000000000053e+00 0.000000000000000000e+00 1.685999999999999943e+01
         Na 2.810000000000000053e+00 0.000000000000000000e+00 1.967000000000000171e+01
         Cl 0.000000000000000000e+00 2.810000000000000053e+00 1.685999999999999943e+01
         Na 2.810000000000000053e+00 2.810000000000000053e+00 1.685999999999999943e+01
         Cl 0.000000000000000000e+00 0.000000000000000000e+00 1.967000000000000171e+01
         Na 0.000000000000000000e+00 5.620000000000000107e+00 0.000000000000000000e+00
         Cl 2.810000000000000053e+00 8.429999999999999716e+00 2.810000000000000053e+00
         Na 0.000000000000000000e+00 8.429999999999999716e+00 2.810000000000000053e+00
         Cl 2.810000000000000053e+00 5.620000000000000107e+00 0.000000000000000000e+00
         Na 2.810000000000000053e+00 5.620000000000000107e+00 2.810000000000000053e+00
         Cl 0.000000000000000000e+00 8.429999999999999716e+00 0.000000000000000000e+00
         Na 2.810000000000000053e+00 8.429999999999999716e+00 0.000000000000000000e+00
         Cl 0.000000000000000000e+00 5.620000000000000107e+00 2.810000000000000053e+00
         Na 0.000000000000000000e+00 5.620000000000000107e+00 5.620000000000000107e+00
         Cl 2.810000000000000053e+00 8.429999999999999716e+00 8.429999999999999716e+00
         Na 0.000000000000000000e+00 8.429999999999999716e+00 8.429999999999999716e+00
         Cl 2.810000000000000053e+00 5.620000000000000107e+00 5.620000000000000107e+00
         Na 2.810000000000000053e+00 5.620000000000000107e+00 8.429999999999999716e+00
         Cl 0.000000000000000000e+00 8.429999999999999716e+00 5.620000000000000107e+00
         Na 2.810000000000000053e+00 8.429999999999999716e+00 5.620000000000000107e+00
         Cl 0.000000000000000000e+00 5.620000000000000107e+00 8.429999999999999716e+00
         Na 0.000000000000000000e+00 5.620000000000000107e+00 1.124000000000000021e+01
         Cl 2.810000000000000053e+00 8.429999999999999716e+00 1.405000000000000071e+01
         Na 0.000000000000000000e+00 8.429999999999999716e+00 1.405000000000000071e+01
         Cl 2.810000000000000053e+00 5.620000000000000107e+00 1.124000000000000021e+01
         Na 2.810000000000000053e+00 5.620000000000000107e+00 1.405000000000000071e+01
         Cl 0.000000000000000000e+00 8.429999999999999716e+00 1.124000000000000021e+01
         Na 2.810000000000000053e+00 8.429999999999999716e+00 1.124000000000000021e+01
         Cl 0.000000000000000000e+00 5.620000000000000107e+00 1.405000000000000071e+01
         Na 0.000000000000000000e+00 5.620000000000000107e+00 1.685999999999999943e+01
         Cl 2.810000000000000053e+00 8.429999999999999716e+00 1.967000000000000171e+01
         Na 0.000000000000000000e+00 8.429999999999999716e+00 1.967000000000000171e+01
         Cl 2.810000000000000053e+00 5.620000000000000107e+00 1.685999999999999943e+01
         Na 2.810000000000000053e+00 5.620000000000000107e+00 1.967000000000000171e+01
         Cl 0.000000000000000000e+00 8.429999999999999716e+00 1.685999999999999943e+01
         Na 2.810000000000000053e+00 8.429999999999999716e+00 1.685999999999999943e+01
         Cl 0.000000000000000000e+00 5.620000000000000107e+00 1.967000000000000171e+01
         Na 0.000000000000000000e+00 1.124000000000000021e+01 0.000000000000000000e+00
         Cl 2.810000000000000053e+00 1.405000000000000071e+01 2.810000000000000053e+00
         Na 0.000000000000000000e+00 1.405000000000000071e+01 2.810000000000000053e+00
         Cl 2.810000000000000053e+00 1.124000000000000021e+01 0.000000000000000000e+00
         Na 2.810000000000000053e+00 1.124000000000000021e+01 2.810000000000000053e+00
         Cl 0.000000000000000000e+00 1.405000000000000071e+01 0.000000000000000000e+00
         Na 2.810000000000000053e+00 1.405000000000000071e+01 0.000000000000000000e+00
         Cl 0.000000000000000000e+00 1.124000000000000021e+01 2.810000000000000053e+00
         Na 0.000000000000000000e+00 1.124000000000000021e+01 5.620000000000000107e+00
         Cl 2.810000000000000053e+00 1.405000000000000071e+01 8.429999999999999716e+00
         Na 0.000000000000000000e+00 1.405000000000000071e+01 8.429999999999999716e+00
         Cl 2.810000000000000053e+00 1.124000000000000021e+01 5.620000000000000107e+00
         Na 2.810000000000000053e+00 1.124000000000000021e+01 8.429999999999999716e+00
         Cl 0.000000000000000000e+00 1.405000000000000071e+01 5.620000000000000107e+00
         Na 2.810000000000000053e+00 1.405000000000000071e+01 5.620000000000000107e+00
         Cl 0.000000000000000000e+00 1.124000000000000021e+01 8.429999999999999716e+00
         Na 0.000000000000000000e+00 1.124000000000000021e+01 1.124000000000000021e+01
         Cl 2.810000000000000053e+00 1.405000000000000071e+01 1.405000000000000071e+01
         Na 0.000000000000000000e+00 1.405000000000000071e+01 1.405000000000000071e+01
         Cl 2.810000000000000053e+00 1.124000000000000021e+01 1.124000000000000021e+01
         Na 2.810000000000000053e+00 1.124000000000000021e+01 1.405000000000000071e+01
         Cl 0.000000000000000000e+00 1.405000000000000071e+01 1.124000000000000021e+01
         Na 2.810000000000000053e+00 1.405000000000000071e+01 1.124000000000000021e+01
         Cl 0.000000000000000000e+00 1.124000000000000021e+01 1.405000000000000071e+01
         Na 0.000000000000000000e+00 1.124000000000000021e+01 1.685999999999999943e+01
         Cl 2.810000000000000053e+00 1.405000000000000071e+01 1.967000000000000171e+01
         Na 0.000000000000000000e+00 1.405000000000000071e+01 1.967000000000000171e+01
         Cl 2.810000000000000053e+00 1.124000000000000021e+01 1.685999999999999943e+01
         Na 2.810000000000000053e+00 1.124000000000000021e+01 1.967000000000000171e+01
         Cl 0.000000000000000000e+00 1.405000000000000071e+01 1.685999999999999943e+01
         Na 2.810000000000000053e+00 1.405000000000000071e+01 1.685999999999999943e+01
         Cl 0.000000000000000000e+00 1.124000000000000021e+01 1.967000000000000171e+01
         Na 0.000000000000000000e+00 1.685999999999999943e+01 0.000000000000000000e+00
         Cl 2.810000000000000053e+00 1.967000000000000171e+01 2.810000000000000053e+00
         Na 0.000000000000000000e+00 1.967000000000000171e+01 2.810000000000000053e+00
         Cl 2.810000000000000053e+00 1.685999999999999943e+01 0.000000000000000000e+00
         Na 2.810000000000000053e+00 1.685999999999999943e+01 2.810000000000000053e+00
         Cl 0.000000000000000000e+00 1.967000000000000171e+01 0.000000000000000000e+00
         Na 2.810000000000000053e+00 1.967000000000000171e+01 0.000000000000000000e+00
         Cl 0.000000000000000000e+00 1.685999999999999943e+01 2.810000000000000053e+00
         Na 0.000000000000000000e+00 1.685999999999999943e+01 5.620000000000000107e+00
         Cl 2.810000000000000053e+00 1.967000000000000171e+01 8.429999999999999716e+00
         Na 0.000000000000000000e+00 1.967000000000000171e+01 8.429999999999999716e+00
         Cl 2.810000000000000053e+00 1.685999999999999943e+01 5.620000000000000107e+00
         Na 2.810000000000000053e+00 1.685999999999999943e+01 8.429999999999999716e+00
         Cl 0.000000000000000000e+00 1.967000000000000171e+01 5.620000000000000107e+00
         Na 2.810000000000000053e+00 1.967000000000000171e+01 5.620000000000000107e+00
         Cl 0.000000000000000000e+00 1.685999999999999943e+01 8.429999999999999716e+00
         Na 0.000000000000000000e+00 1.685999999999999943e+01 1.124000000000000021e+01
         Cl 2.810000000000000053e+00 1.967000000000000171e+01 1.405000000000000071e+01
         Na 0.000000000000000000e+00 1.967000000000000171e+01 1.405000000000000071e+01
         Cl 2.810000000000000053e+00 1.685999999999999943e+01 1.124000000000000021e+01
         Na 2.810000000000000053e+00 1.685999999999999943e+01 1.405000000000000071e+01
         Cl 0.000000000000000000e+00 1.967000000000000171e+01 1.124000000000000021e+01
         Na 2.810000000000000053e+00 1.967000000000000171e+01 1.124000000000000021e+01
         Cl 0.000000000000000000e+00 1.685999999999999943e+01 1.405000000000000071e+01
         Na 0.000000000000000000e+00 1.685999999999999943e+01 1.685999999999999943e+01
         Cl 2.810000000000000053e+00 1.967000000000000171e+01 1.967000000000000171e+01
         Na 0.000000000000000000e+00 1.967000000000000171e+01 1.967000000000000171e+01
         Cl 2.810000000000000053e+00 1.685999999999999943e+01 1.685999999999999943e+01
         Na 2.810000000000000053e+00 1.685999999999999943e+01 1.967000000000000171e+01
         Cl 0.000000000000000000e+00 1.967000000000000171e+01 1.685999999999999943e+01
         Na 2.810000000000000053e+00 1.967000000000000171e+01 1.685999999999999943e+01
         Cl 0.000000000000000000e+00 1.685999999999999943e+01 1.967000000000000171e+01
         Na 5.620000000000000107e+00 0.000000000000000000e+00 0.000000000000000000e+00
         Cl 8.429999999999999716e+00 2.810000000000000053e+00 2.810000000000000053e+00
         Na 5.620000000000000107e+00 2.810000000000000053e+00 2.810000000000000053e+00
         Cl 8.429999999999999716e+00 0.000000000000000000e+00 0.000000000000000000e+00
         Na 8.429999999999999716e+00 0.000000000000000000e+00 2.810000000000000053e+00
         Cl 5.620000000000000107e+00 2.810000000000000053e+00 0.000000000000000000e+00
         Na 8.429999999999999716e+00 2.810000000000000053e+00 0.000000000000000000e+00
         Cl 5.620000000000000107e+00 0.000000000000000000e+00 2.810000000000000053e+00
         Na 5.620000000000000107e+00 0.000000000000000000e+00 5.620000000000000107e+00
         Cl 8.429999999999999716e+00 2.810000000000000053e+00 8.429999999999999716e+00
         Na 5.620000000000000107e+00 2.810000000000000053e+00 8.429999999999999716e+00
         Cl 8.429999999999999716e+00 0.000000000000000000e+00 5.620000000000000107e+00
         Na 8.429999999999999716e+00 0.000000000000000000e+00 8.429999999999999716e+00
         Cl 5.620000000000000107e+00 2.810000000000000053e+00 5.620000000000000107e+00
         Na 8.429999999999999716e+00 2.810000000000000053e+00 5.620000000000000107e+00
         Cl 5.620000000000000107e+00 0.000000000000000000e+00 8.429999999999999716e+00
         Na 5.620000000000000107e+00 0.000000000000000000e+00 1.124000000000000021e+01
         Cl 8.429999999999999716e+00 2.810000000000000053e+00 1.405000000000000071e+01
         Na 5.620000000000000107e+00 2.810000000000000053e+00 1.405000000000000071e+01
         Cl 8.429999999999999716e+00 0.000000000000000000e+00 1.124000000000000021e+01
         Na 8.429999999999999716e+00 0.000000000000000000e+00 1.405000000000000071e+01
         Cl 5.620000000000000107e+00 2.810000000000000053e+00 1.124000000000000021e+01
         Na 8.429999999999999716e+00 2.810000000000000053e+00 1.124000000000000021e+01
         Cl 5.620000000000000107e+00 0.000000000000000000e+00 1.405000000000000071e+01
         Na 5.620000000000000107e+00 0.000000000000000000e+00 1.685999999999999943e+01
         Cl 8.429999999999999716e+00 2.810000000000000053e+00 1.967000000000000171e+01
         Na 5.620000000000000107e+00 2.810000000000000053e+00 1.967000000000000171e+01
         Cl 8.429999999999999716e+00 0.000000000000000000e+00 1.685999999999999943e+01
         Na 8.429999999999999716e+00 0.000000000000000000e+00 1.967000000000000171e+01
         Cl 5.620000000000000107e+00 2.810000000000000053e+00 1.685999999999999943e+01
         Na 8.429999999999999716e+00 2.810000000000000053e+00 1.685999999999999943e+01
         Cl 5.620000000000000107e+00 0.000000000000000000e+00 1.967000000000000171e+01
         Na 5.620000000000000107e+00 5.620000000000000107e+00 0.000000000000000000e+00
         Cl 8.429999999999999716e+00 8.429999999999999716e+00 2.810000000000000053e+00
         Na 5.620000000000000107e+00 8.429999999999999716e+00 2.810000000000000053e+00
         Cl 8.429999999999999716e+00 5.620000000000000107e+00 0.000000000000000000e+00
         Na 8.429999999999999716e+00 5.620000000000000107e+00 2.810000000000000053e+00
         Cl 5.620000000000000107e+00 8.429999999999999716e+00 0.000000000000000000e+00
         Na 8.429999999999999716e+00 8.429999999999999716e+00 0.000000000000000000e+00
         Cl 5.620000000000000107e+00 5.620000000000000107e+00 2.810000000000000053e+00
         Na 5.620000000000000107e+00 5.620000000000000107e+00 5.620000000000000107e+00
         Cl 8.429999999999999716e+00 8.429999999999999716e+00 8.429999999999999716e+00
         Na 5.620000000000000107e+00 8.429999999999999716e+00 8.429999999999999716e+00
         Cl 8.429999999999999716e+00 5.620000000000000107e+00 5.620000000000000107e+00
         Na 8.429999999999999716e+00 5.620000000000000107e+00 8.429999999999999716e+00
         Cl 5.620000000000000107e+00 8.429999999999999716e+00 5.620000000000000107e+00
         Na 8.429999999999999716e+00 8.429999999999999716e+00 5.620000000000000107e+00
         Cl 5.620000000000000107e+00 5.620000000000000107e+00 8.429999999999999716e+00
         Na 5.620000000000000107e+00 5.620000000000000107e+00 1.124000000000000021e+01
         Cl 8.429999999999999716e+00 8.429999999999999716e+00 1.405000000000000071e+01
         Na 5.620000000000000107e+00 8.429999999999999716e+00 1.405000000000000071e+01
         Cl 8.429999999999999716e+00 5.620000000000000107e+00 1.124000000000000021e+01
         Na 8.429999999999999716e+00 5.620000000000000107e+00 1.405000000000000071e+01
         Cl 5.620000000000000107e+00 8.429999999999999716e+00 1.124000000000000021e+01
         Na 8.429999999999999716e+00 8.429999999999999716e+00 1.124000000000000021e+01
         Cl 5.620000000000000107e+00 5.620000000000000107e+00 1.405000000000000071e+01
         Na 5.620000000000000107e+00 5.620000000000000107e+00 1.685999999999999943e+01
         Cl 8.429999999999999716e+00 8.429999999999999716e+00 1.967000000000000171e+01
         Na 5.620000000000000107e+00 8.429999999999999716e+00 1.967000000000000171e+01
         Cl 8.429999999999999716e+00 5.620000000000000107e+00 1.685999999999999943e+01
         Na 8.429999999999999716e+00 5.620000000000000107e+00 1.967000000000000171e+01
         Cl 5.620000000000000107e+00 8.429999999999999716e+00 1.685999999999999943e+01
         Na 8.429999999999999716e+00 8.429999999999999716e+00 1.685999999999999943e+01
         Cl 5.620000000000000107e+00 5.620000000000000107e+00 1.967000000000000171e+01
         Na 5.620000000000000107e+00 1.124000000000000021e+01 0.000000000000000000e+00
         Cl 8.429999999999999716e+00 1.405000000000000071e+01 2.810000000000000053e+00
         Na 5.620000000000000107e+00 1.405000000000000071e+01 2.810000000000000053e+00
         Cl 8.429999999999999716e+00 1.124000000000000021e+01 0.000000000000000000e+00
         Na 8.429999999999999716e+00 1.124000000000000021e+01 2.810000000000000053e+00
         Cl 5.620000000000000107e+00 1.405000000000000071e+01 0.000000000000000000e+00
         Na 8.429999999999999716e+00 1.405000000000000071e+01 0.000000000000000000e+00
         Cl 5.620000000000000107e+00 1.124000000000000021e+01 2.810000000000000053e+00
         Na 5.620000000000000107e+00 1.124000000000000021e+01 5.620000000000000107e+00
         Cl 8.429999999999999716e+00 1.405000000000000071e+01 8.429999999999999716e+00
         Na 5.620000000000000107e+00 1.405000000000000071e+01 8.429999999999999716e+00
         Cl 8.429999999999999716e+00 1.124000000000000021e+01 5.620000000000000107e+00
         Na 8.429999999999999716e+00 1.124000000000000021e+01 8.429999999999999716e+00
         Cl 5.620000000000000107e+00 1.405000000000000071e+01 5.620000000000000107e+00
         Na 8.429999999999999716e+00 1.405000000000000071e+01 5.620000000000000107e+00
         Cl 5.620000000000000107e+00 1.124000000000000021e+01 8.429999999999999716e+00
         Na 5.620000000000000107e+00 1.124000000000000021e+01 1.124000000000000021e+01
         Cl 8.429999999999999716e+00 1.405000000000000071e+01 1.405000000000000071e+01
         Na 5.620000000000000107e+00 1.405000000000000071e+01 1.405000000000000071e+01
         Cl 8.429999999999999716e+00 1.124000000000000021e+01 1.124000000000000021e+01
         Na 8.429999999999999716e+00 1.124000000000000021e+01 1.405000000000000071e+01
         Cl 5.620000000000000107e+00 1.405000000000000071e+01 1.124000000000000021e+01
         Na 8.429999999999999716e+00 1.405000000000000071e+01 1.124000000000000021e+01
         Cl 5.620000000000000107e+00 1.124000000000000021e+01 1.405000000000000071e+01
         Na 5.620000000000000107e+00 1.124000000000000021e+01 1.685999999999999943e+01
         Cl 8.429999999999999716e+00 1.405000000000000071e+01 1.967000000000000171e+01
         Na 5.620000000000000107e+00 1.405000000000000071e+01 1.967000000000000171e+01
         Cl 8.429999999999999716e+00 1.124000000000000021e+01 1.685999999999999943e+01
         Na 8.429999999999999716e+00 1.124000000000000021e+01 1.967000000000000171e+01
         Cl 5.620000000000000107e+00 1.405000000000000071e+01 1.685999999999999943e+01
         Na 8.429999999999999716e+00 1.405000000000000071e+01 1.685999999999999943e+01
         Cl 5.620000000000000107e+00 1.124000000000000021e+01 1.967000000000000171e+01
         Na 5.620000000000000107e+00 1.685999999999999943e+01 0.000000000000000000e+00
         Cl 8.429999999999999716e+00 1.967000000000000171e+01 2.810000000000000053e+00
         Na 5.620000000000000107e+00 1.967000000000000171e+01 2.810000000000000053e+00
         Cl 8.429999999999999716e+00 1.685999999999999943e+01 0.000000000000000000e+00
         Na 8.429999999999999716e+00 1.685999999999999943e+01 2.810000000000000053e+00
         Cl 5.620000000000000107e+00 1.967000000000000171e+01 0.000000000000000000e+00
         Na 8.429999999999999716e+00 1.967000000000000171e+01 0.000000000000000000e+00
         Cl 5.620000000000000107e+00 1.685999999999999943e+01 2.810000000000000053e+00
         Na 5.620000000000000107e+00 1.685999999999999943e+01 5.620000000000000107e+00
         Cl 8.429999999999999716e+00 1.967000000000000171e+01 8.429999999999999716e+00
         Na 5.620000000000000107e+00 1.967000000000000171e+01 8.429999999999999716e+00
         Cl 8.429999999999999716e+00 1.685999999999999943e+01 5.620000000000000107e+00
         Na 8.429999999999999716e+00 1.685999999999999943e+01 8.429999999999999716e+00
         Cl 5.620000000000000107e+00 1.967000000000000171e+01 5.620000000000000107e+00
         Na 8.429999999999999716e+00 1.967000000000000171e+01 5.620000000000000107e+00
         Cl 5.620000000000000107e+00 1.685999999999999943e+01 8.429999999999999716e+00
         Na 5.620000000000000107e+00 1.685999999999999943e+01 1.124000000000000021e+01
         Cl 8.429999999999999716e+00 1.967000000000000171e+01 1.405000000000000071e+01
         Na 5.620000000000000107e+00 1.967000000000000171e+01 1.405000000000000071e+01
         Cl 8.429999999999999716e+00 1.685999999999999943e+01 1.124000000000000021e+01
         Na 8.429999999999999716e+00 1.685999999999999943e+01 1.405000000000000071e+01
         Cl 5.620000000000000107e+00 1.967000000000000171e+01 1.124000000000000021e+01
         Na 8.429999999999999716e+00 1.967000000000000171e+01 1.124000000000000021e+01
         Cl 5.620000000000000107e+00 1.685999999999999943e+01 1.405000000000000071e+01
         Na 5.620000000000000107e+00 1.685999999999999943e+01 1.685999999999999943e+01
         Cl 8.429999999999999716e+00 1.967000000000000171e+01 1.967000000000000171e+01
         Na 5.620000000000000107e+00 1.967000000000000171e+01 1.967000000000000171e+01
         Cl 8.429999999999999716e+00 1.685999999999999943e+01 1.685999999999999943e+01
         Na 8.429999999999999716e+00 1.685999999999999943e+01 1.967000000000000171e+01
         Cl 5.620000000000000107e+00 1.967000000000000171e+01 1.685999999999999943e+01
         Na 8.429999999999999716e+00 1.967000000000000171e+01 1.685999999999999943e+01
         Cl 5.620000000000000107e+00 1.685999999999999943e+01 1.967000000000000171e+01
         Na 1.124000000000000021e+01 0.000000000000000000e+00 0.000000000000000000e+00
         Cl 1.405000000000000071e+01 2.810000000000000053e+00 2.810000000000000053e+00
         Na 1.124000000000000021e+01 2.810000000000000053e+00 2.810000000000000053e+00
         Cl 1.405000000000000071e+01 0.000000000000000000e+00 0.000000000000000000e+00
         Na 1.405000000000000071e+01 0.000000000000000000e+00 2.810000000000000053e+00
         Cl 1.124000000000000021e+01 2.810000000000000053e+00 0.000000000000000000e+00
         Na 1.405000000000000071e+01 2.810000000000000053e+00 0.000000000000000000e+00
         Cl 1.124000000000000021e+01 0.000000000000000000e+00 2.810000000000000053e+00
         Na 1.124000000000000021e+01 0.000000000000000000e+00 5.620000000000000107e+00
         Cl 1.405000000000000071e+01 2.810000000000000053e+00 8.429999999999999716e+00
         Na 1.124000000000000021e+01 2.810000000000000053e+00 8.429999999999999716e+00
         Cl 1.405000000000000071e+01 0.000000000000000000e+00 5.620000000000000107e+00
         Na 1.405000000000000071e+01 0.000000000000000000e+00 8.429999999999999716e+00
         Cl 1.124000000000000021e+01 2.810000000000000053e+00 5.620000000000000107e+00
         Na 1.405000000000000071e+01 2.810000000000000053e+00 5.620000000000000107e+00
         Cl 1.124000000000000021e+01 0.000000000000000000e+00 8.429999999999999716e+00
         Na 1.124000000000000021e+01 0.000000000000000000e+00 1.124000000000000021e+01
         Cl 1.405000000000000071e+01 2.810000000000000053e+00 1.405000000000000071e+01
         Na 1.124000000000000021e+01 2.810000000000000053e+00 1.405000000000000071e+01
         Cl 1.405000000000000071e+01 0.000000000000000000e+00 1.124000000000000021e+01
         Na 1.405000000000000071e+01 0.000000000000000000e+00 1.405000000000000071e+01
         Cl 1.124000000000000021e+01 2.810000000000000053e+00 1.124000000000000021e+01
         Na 1.405000000000000071e+01 2.810000000000000053e+00 1.124000000000000021e+01
         Cl 1.124000000000000021e+01 0.000000000000000000e+00 1.405000000000000071e+01
         Na 1.124000000000000021e+01 0.000000000000000000e+00 1.685999999999999943e+01
         Cl 1.405000000000000071e+01 2.810000000000000053e+00 1.967000000000000171e+01
         Na 1.124000000000000021e+01 2.810000000000000053e+00 1.967000000000000171e+01
         Cl 1.405000000000000071e+01 0.000000000000000000e+00 1.685999999999999943e+01
         Na 1.405000000000000071e+01 0.000000000000000000e+00 1.967000000000000171e+01
         Cl 1.124000000000000021e+01 2.810000000000000053e+00 1.685999999999999943e+01
         Na 1.405000000000000071e+01 2.810000000000000053e+00 1.685999999999999943e+01
         Cl 1.124000000000000021e+01 0.000000000000000000e+00 1.967000000000000171e+01
         Na 1.124000000000000021e+01 5.620000000000000107e+00 0.000000000000000000e+00
         Cl 1.405000000000000071e+01 8.429999999999999716e+00 2.810000000000000053e+00
         Na 1.124000000000000021e+01 8.429999999999999716e+00 2.810000000000000053e+00
         Cl 1.405000000000000071e+01 5.620000000000000107e+00 0.000000000000000000e+00
         Na 1.405000000000000071e+01 5.620000000000000107e+00 2.810000000000000053e+00
         Cl 1.124000000000000021e+01 8.429999999999999716e+00 0.000000000000000000e+00
         Na 1.405000000000000071e+01 8.429999999999999716e+00 0.000000000000000000e+00
         Cl 1.124000000000000021e+01 5.620000000000000107e+00 2.810000000000000053e+00
         Na 1.124000000000000021e+01 5.620000000000000107e+00 5.620000000000000107e+00
         Cl 1.405000000000000071e+01 8.429999999999999716e+00 8.429999999999999716e+00
         Na 1.124000000000000021e+01 8.429999999999999716e+00 8.429999999999999716e+00
         Cl 1.405000000000000071e+01 5.620000000000000107e+00 5.620000000000000107e+00
         Na 1.405000000000000071e+01 5.620000000000000107e+00 8.429999999999999716e+00
         Cl 1.124000000000000021e+01 8.429999999999999716e+00 5.620000000000000107e+00
         Na 1.405000000000000071e+01 8.429999999999999716e+00 5.620000000000000107e+00
         Cl 1.124000000000000021e+01 5.620000000000000107e+00 8.429999999999999716e+00
         Na 1.124000000000000021e+01 5.620000000000000107e+00 1.124000000000000021e+01
         Cl 1.405000000000000071e+01 8.429999999999999716e+00 1.405000000000000071e+01
         Na 1.124000000000000021e+01 8.429999999999999716e+00 1.405000000000000071e+01
         Cl 1.405000000000000071e+01 5.620000000000000107e+00 1.124000000000000021e+01
         Na 1.405000000000000071e+01 5.620000000000000107e+00 1.405000000000000071e+01
         Cl 1.124000000000000021e+01 8.429999999999999716e+00 1.124000000000000021e+01
         Na 1.405000000000000071e+01 8.429999999999999716e+00 1.124000000000000021e+01
         Cl 1.124000000000000021e+01 5.620000000000000107e+00 1.405000000000000071e+01
         Na 1.124000000000000021e+01 5.620000000000000107e+00 1.685999999999999943e+01
         Cl 1.405000000000000071e+01 8.429999999999999716e+00 1.967000000000000171e+01
         Na 1.124000000000000021e+01 8.429999999999999716e+00 1.967000000000000171e+01
         Cl 1.405000000000000071e+01 5.620000000000000107e+00 1.685999999999999943e+01
         Na 1.405000000000000071e+01 5.620000000000000107e+00 1.967000000000000171e+01
         Cl 1.124000000000000021e+01 8.429999999999999716e+00 1.685999999999999943e+01
         Na 1.405000000000000071e+01 8.429999999999999716e+00 1.685999999999999943e+01
         Cl 1.124000000000000021e+01 5.620000000000000107e+00 1.967000000000000171e+01
         Na 1.124000000000000021e+01 1.124000000000000021e+01 0.000000000000000000e+00
         Cl 1.405000000000000071e+01 1.405000000000000071e+01 2.810000000000000053e+00
         Na 1.124000000000000021e+01 1.405000000000000071e+01 2.810000000000000053e+00
         Cl 1.405000000000000071e+01 1.124000000000000021e+01 0.000000000000000000e+00
         Na 1.405000000000000071e+01 1.124000000000000021e+01 2.810000000000000053e+00
         Cl 1.124000000000000021e+01 1.405000000000000071e+01 0.000000000000000000e+00
         Na 1.405000000000000071e+01 1.405000000000000071e+01 0.000000000000000000e+00
         Cl 1.124000000000000021e+01 1.124000000000000021e+01 2.810000000000000053e+00
         Na 1.124000000000000021e+01 1.124000000000000021e+01 5.620000000000000107e+00
         Cl 1.405000000000000071e+01 1.405000000000000071e+01 8.429999999999999716e+00
         Na 1.124000000000000021e+01 1.405000000000000071e+01 8.429999999999999716e+00
         Cl 1.405000000000000071e+01 1.124000000000000021e+01 5.620000000000000107e+00
         Na 1.405000000000000071e+01 1.124000000000000021e+01 8.429999999999999716e+00
         Cl 1.124000000000000021e+01 1.405000000000000071e+01 5.620000000000000107e+00
         Na 1.405000000000000071e+01 1.405000000000000071e+01 5.620000000000000107e+00
         Cl 1.124000000000000021e+01 1.124000000000000021e+01 8.429999999999999716e+00
         Na 1.124000000000000021e+01 1.124000000000000021e+01 1.124000000000000021e+01