!!! Generated by ASE !!!
&FORCE_EVAL
   METHOD Fist
   STRESS_TENSOR ANALYTICAL
   &MM
      &FORCEFIELD
         &CHARGE
            ATOM Na
            CHARGE +1.000
         &END CHARGE
         &CHARGE
            ATOM Cl
            CHARGE -1.000
         &END CHARGE
         &NONBONDED
            &BMHFT
               map_atoms NA NA
               atoms NA NA
               RCUT 10.0
            &END BMHFT
            &BMHFT
               map_atoms NA CL
               atoms NA CL
               RCUT 10.0
            &END BMHFT
            &BMHFT
               map_atoms CL CL
               atoms CL CL
               RCUT 10.0
            &END BMHFT
         &END NONBONDED
      &END FORCEFIELD
      &POISSON
         &EWALD
            EWALD_TYPE spme
            ALPHA .5
            GMAX 40
            O_SPLINE 6
         &END EWALD
      &END POISSON
   &END MM
   &SUBSYS
      &CELL
         ABC 22.480 22.480 22.480
         PERIODIC XYZ
         A 2.248000000000000043e+01 0.000000000000000000e+00 0.000000000000000000e+00
         B 0.000000000000000000e+00 2.248000000000000043e+01 0.000000000000000000e+00
         C 0.000000000000000000e+00 0.000000000000000000e+00 2.248000000000000043e+01
      &END CELL
      &TOPOLOGY
         &GENERATE
            BONDLENGTH_MAX [bohr] 6.5
         &END GENERATE
      &END TOPOLOGY
      &COORD
         Na -2.523918256016717820e-01 2.080038567445971739e-15 1.865238992456184000e-15
         Na -1.684985414626626737e-02 2.826849854146267216e+00 2.826849854146266772e+00
         Cl 2.810000000000000053e+00 2.719163252811913178e+00 2.719163252811913178e+00
         Na 2.810000000000000941e+00 2.044724625995063405e-15 3.062391825601674444e+00
         Cl 9.083674718808673609e-02 2.719163252811914067e+00 1.637933868530770887e-15
         Na 2.810000000000000941e+00 3.062391825601674000e+00 2.259084272063153324e-15
         Cl 9.083674718808701365e-02 1.376106070585281059e-15 2.719163252811914067e+00
         Na -2.211695361837398913e-02 -1.027458163750226522e-16 5.654911925418071306e+00
         Cl 2.810000000000000053e+00 2.812449461319994182e+00 8.426732816657260372e+00
         Na -2.526695771865189195e-03 2.812526695771865537e+00 8.439248224219490169e+00
         Cl 2.810000000000000053e+00 4.579760768650961622e-16 5.669505208391722562e+00
         Na 2.810000000000000053e+00 -4.904668345967575157e-16 8.452708111769020149e+00
         Cl 1.653026757799644017e-02 2.793469732422004359e+00 5.596256853198013914e+00
         Na 2.810000000000000053e+00 2.832116953618375454e+00 5.654911925418070417e+00
         Cl -2.449461319994376916e-03 8.333888436934753358e-17 8.426732816657258596e+00
         Na -3.261924014546068590e-03 2.121925089154753531e-16 1.124000000000000021e+01
         Cl 2.810000000000000053e+00 2.812449461319994182e+00 1.405326718334274183e+01
         Na -2.526695771865119372e-03 2.812526695771865537e+00 1.404075177578051026e+01
         Cl 2.810000000000000053e+00 1.564236013438535953e-16 1.124000000000000021e+01
         Na 2.810000000000000053e+00 -3.511054288650813309e-16 1.402729188823097850e+01
         Cl 1.923739239148700890e-03 2.808076260760852261e+00 1.124000000000000021e+01
         Na 2.810000000000000053e+00 2.813261924014548221e+00 1.124000000000000021e+01
         Cl -2.449461319994076375e-03 -1.627907715847849387e-16 1.405326718334274183e+01
         Na -2.211695361837436730e-02 1.606724280580289507e-16 1.682508807458192734e+01
         Cl 2.810000000000000053e+00 2.719163252811912734e+00 1.976083674718809036e+01
         Na -1.684985414626597247e-02 2.826849854146267216e+00 1.965315014585373632e+01
         Cl 2.810000000000000053e+00 6.084049487806423968e-16 1.681049479160828142e+01
         Na 2.810000000000000497e+00 2.408714501738007721e-15 1.941760817439832820e+01
         Cl 1.653026757799710977e-02 2.793469732422003471e+00 1.688374314680199006e+01
         Na 2.810000000000000053e+00 2.832116953618375899e+00 1.682508807458193090e+01
         Cl 9.083674718808706916e-02 1.340871009002497859e-15 1.976083674718808680e+01
         Na -2.211695361837406199e-02 5.654911925418071306e+00 -1.762589595268711500e-16
         Cl 2.810000000000000053e+00 8.426732816657260372e+00 2.812449461319994182e+00
         Na -2.526695771865171847e-03 8.439248224219490169e+00 2.812526695771865537e+00
         Cl 2.810000000000000053e+00 5.669505208391722562e+00 6.588127145689105448e-16
         Na 2.810000000000000053e+00 5.654911925418070417e+00 2.832116953618375454e+00
         Cl -2.449461319994472759e-03 8.426732816657258596e+00 1.350671944968341494e-16
         Na 2.810000000000000053e+00 8.452708111769020149e+00 -4.465890344488330435e-16
         Cl 1.653026757799645752e-02 5.596256853198013914e+00 2.793469732422004359e+00
         Na -7.764548886736309836e-03 5.630872775243138229e+00 5.630872775243138229e+00
         Cl 2.810000000000000053e+00 8.425407991022053622e+00 8.425407991022053622e+00
         Na -2.078956372870621825e-03 8.433756602111110112e+00 8.433756602111110112e+00
         Cl 2.810000000000000497e+00 5.600420185878110857e+00 5.600420185878110857e+00
         Na 2.810000000000000053e+00 5.626413779643264057e+00 8.438180939181094686e+00
         Cl 3.181609123295933098e-03 8.423353529193940759e+00 5.614728181741098112e+00
         Na 2.810000000000000053e+00 8.438180939181094686e+00 5.626413779643264057e+00
         Cl 3.181609123295967359e-03 5.614728181741098112e+00 8.423353529193940759e+00
         Na -1.778736003383192977e-03 5.623086147122068112e+00 1.124000000000000021e+01
         Cl 2.810000000000000053e+00 8.425407991022053622e+00 1.405459200897794503e+01
         Na -2.078956372870564145e-03 8.433756602111108336e+00 1.404624339788889031e+01
         Cl 2.810000000000000053e+00 5.617544363000409824e+00 1.124000000000000021e+01
         Na 2.810000000000000053e+00 5.626413779643263169e+00 1.404181906081890574e+01
         Cl 1.666150193860740968e-03 8.427556807537474270e+00 1.124000000000000021e+01
         Na 2.810000000000000053e+00 8.432762600730667302e+00 1.124000000000000021e+01
         Cl 3.181609123295185432e-03 5.614728181741098112e+00 1.405664647080605967e+01
         Na -7.764548886736743517e-03 5.630872775243136452e+00 1.684912722475685953e+01
         Cl 2.810000000000000053e+00 8.426732816657260372e+00 1.966755053868000402e+01
         Na -2.526695771865269859e-03 8.439248224219490169e+00 1.966747330422813889e+01
         Cl 2.810000000000000053e+00 5.600420185878109969e+00 1.687957981412189312e+01
         Na 2.810000000000000053e+00 5.654911925418071306e+00 1.964788304638162231e+01
         Cl 3.181609123295713656e-03 8.423353529193940759e+00 1.686527181825890054e+01
         Na 2.810000000000000053e+00 8.438180939181094686e+00 1.685358622035673548e+01
         Cl 1.653026757799694671e-02 5.596256853198013914e+00 1.968653026757799651e+01
         Na -3.261924014545927210e-03 1.124000000000000021e+01 2.713239166801233261e-16
         Cl 2.810000000000000053e+00 1.405326718334274183e+01 2.812449461319994182e+00
         Na -2.526695771865109397e-03 1.404075177578051026e+01 2.812526695771865537e+00
         Cl 2.810000000000000053e+00 1.124000000000000021e+01 1.790154406339139364e-16
         Na 2.810000000000000053e+00 1.124000000000000021e+01 2.813261924014547777e+00
         Cl -2.449461319994032139e-03 1.405326718334274183e+01 8.139978718307610771e-17
         Na 2.810000000000000053e+00 1.402729188823097850e+01 -3.657801810140981144e-16
         Cl 1.923739239148673135e-03 1.124000000000000021e+01 2.808076260760852261e+00
         Na -1.778736003383170425e-03 1.124000000000000021e+01 5.623086147122068112e+00
         Cl 2.810000000000000053e+00 1.405459200897794503e+01 8.425407991022053622e+00
         Na -2.078956372870506900e-03 1.404624339788889031e+01 8.433756602111108336e+00
         Cl 2.810000000000000053e+00 1.124000000000000021e+01 5.617544363000409824e+00
         Na 2.810000000000000053e+00 1.124000000000000021e+01 8.432762600730667302e+00
         Cl 3.181609123295096094e-03 1.405664647080605967e+01 5.614728181741098112e+00
         Na 2.810000000000000053e+00 1.404181906081890574e+01 5.626413779643263169e+00
         Cl 1.666150193860729692e-03 1.124000000000000021e+01 8.427556807537474270e+00
         Na -1.449927641548947157e-03 1.124000000000000021e+01 1.124000000000000021e+01
         Cl 2.810000000000000053e+00 1.405459200897794503e+01 1.405459200897794503e+01
         Na -2.078956372869929670e-03 1.404624339788889209e+01 1.404624339788889031e+01
         Cl 2.810000000000000053e+00 1.124000000000000021e+01 1.124000000000000021e+01
         Na 2.810000000000000053e+00 1.124000000000000021e+01 1.404723739926933312e+01
         Cl 1.666150193860663556e-03 1.405244319246252616e+01 1.124000000000000021e+01
         Na 2.810000000000000053e+00 1.404723739926933312e+01 1.124000000000000021e+01
         Cl 1.666150193860654449e-03 1.124000000000000021e+01 1.405244319246252616e+01
         Na -1.778736003383402445e-03 1.124000000000000021e+01 1.685691385287793054e+01
         Cl 2.810000000000000053e+00 1.405326718334274183e+01 1.966755053868000402e+01
         Na -2.526695771865264221e-03 1.404075177578051026e+01 1.966747330422813889e+01
         Cl 2.810000000000000053e+00 1.124000000000000021e+01 1.686245563699959149e+01
         Na 2.810000000000000053e+00 1.124000000000000021e+01 1.966673807598545309e+01
         Cl 3.181609123294532309e-03 1.405664647080606144e+01 1.686527181825890054e+01
         Na 2.810000000000000053e+00 1.404181906081890574e+01 1.685358622035673548e+01
         Cl 1.923739239148369341e-03 1.124000000000000021e+01 1.967192373923914772e+01
         Na -2.211695361837445056e-02 1.682508807458192734e+01 5.559400318247878313e-16
         Cl 2.810000000000000053e+00 1.976083674718808680e+01 2.719163252811912734e+00
         Na -1.684985414626600023e-02 1.965315014585373632e+01 2.826849854146267216e+00
         Cl 2.810000000000000053e+00 1.681049479160828497e+01 3.778441930456878031e-16
         Na 2.810000000000000053e+00 1.682508807458193090e+01 2.832116953618375899e+00
         Cl 9.083674718808706916e-02 1.976083674718808680e+01 1.268169248311235163e-15
         Na 2.810000000000000497e+00 1.941760817439832820e+01 2.018943587727739973e-15
         Cl 1.653026757799691895e-02 1.688374314680199006e+01 2.793469732422003471e+00
         Na -7.764548886736661118e-03 1.684912722475685953e+01 5.630872775243136452e+00
         Cl 2.810000000000000053e+00 1.966755053868000402e+01 8.426732816657260372e+00
         Na -2.526695771865194833e-03 1.966747330422813889e+01 8.439248224219490169e+00
         Cl 2.810000000000000053e+00 1.687957981412189312e+01 5.600420185878110857e+00
         Na 2.810000000000000053e+00 1.685358622035673548e+01 8.438180939181094686e+00
         Cl 1.653026757799691895e-02 1.968653026757799651e+01 5.596256853198013914e+00
         Na 2.810000000000000053e+00 1.964788304638162231e+01 5.654911925418071306e+00
         Cl 3.181609123295674191e-03 1.686527181825890054e+01 8.423353529193940759e+00
         Na -1.778736003383491566e-03 1.685691385287793054e+01 1.124000000000000021e+01
         Cl 2.810000000000000053e+00 1.966755053868000402e+01 1.405326718334274183e+01
         Na -2.526695771865246874e-03 1.966747330422813889e+01 1.404075177578051026e+01
         Cl 2.810000000000000053e+00 1.686245563699959149e+01 1.124000000000000021e+01
         Na 2.810000000000000053e+00 1.685358622035673548e+01 1.404181906081890574e+01
         Cl 1.923739239148439164e-03 1.967192373923914772e+01 1.124000000000000021e+01
         Na 2.810000000000000053e+00 1.966673807598545309e+01 1.124000000000000021e+01
         Cl 3.181609123294444706e-03 1.686527181825890054e+01 1.405664647080605967e+01
         Na -7.764548886737036686e-03 1.684912722475686309e+01 1.684912722475685953e+01
         Cl 2.810000000000000053e+00 1.976083674718809036e+01 1.976083674718808680e+01
         Na -1.684985414626542777e-02 1.965315014585373632e+01 1.965315014585373632e+01
         Cl 2.810000000000000053e+00 1.687957981412189312e+01 1.687957981412189312e+01
         Na 2.810000000000000053e+00 1.682508807458193090e+01 1.964788304638162231e+01
         Cl 1.653026757799722773e-02 1.968653026757799651e+01 1.688374314680199006e+01
         Na 2.810000000000000053e+00 1.964788304638162231e+01 1.682508807458193090e+01
         Cl 1.653026757799718610e-02 1.688374314680199006e+01 1.968653026757799651e+01
         Na 5.872391825601675386e+00 2.091648114731606172e-15 1.788206217767239857e-15
         Cl 8.406256853198016188e+00 2.793469732422004803e+00 2.793469732422004803e+00
         Na 5.636849854146268157e+00 2.826849854146267660e+00 2.826849854146267660e+00
         Cl 8.479505208391724835e+00 2.128587076725588932e-16 3.103979256415384726e-16
         Na 8.464911925418070027e+00 -4.340693645168784945e-16 2.832116953618374566e+00
         Cl 5.529163252811913232e+00 2.719163252811914067e+00 1.689318131979244860e-15
         Na 8.464911925418070027e+00 2.832116953618375010e+00 -4.520598667037956060e-16
         Cl 5.529163252811913232e+00 1.508306606122514426e-15 2.719163252811913623e+00
         Na 5.642116953618375064e+00 -3.419816960323917112e-16 5.654911925418070417e+00
         Cl 8.424728181741098609e+00 2.806818390876705482e+00 8.423353529193940759e+00
         Na 5.622526695771865590e+00 2.812526695771865537e+00 8.439248224219488392e+00
         Cl 8.410420185878111354e+00 3.565316749335605483e-16 5.600420185878109969e+00
         Na 8.436413779643263666e+00 -3.467845901730004244e-17 8.438180939181092910e+00
         Cl 5.603469732422005301e+00 2.793469732422005691e+00 5.596256853198015691e+00
         Na 8.440872775243137838e+00 2.817764548886738218e+00 5.630872775243137340e+00
         Cl 5.622449461319994235e+00 -1.070616337585922335e-16 8.426732816657258596e+00
         Na 5.623261924014546942e+00 3.525693509532499989e-16 1.124000000000000021e+01
         Cl 8.424728181741098609e+00 2.806818390876705926e+00 1.405664647080605967e+01
         Na 5.622526695771866478e+00 2.812526695771865537e+00 1.404075177578051203e+01
         Cl 8.427544363000409433e+00 1.450369789721626346e-15 1.124000000000000021e+01
         Na 8.436413779643263666e+00 1.320441351914628446e-16 1.404181906081890574e+01
         Cl 5.618076260760851426e+00 2.808076260760852261e+00 1.124000000000000021e+01
         Na 8.433086147122068610e+00 2.811778736003384349e+00 1.124000000000000021e+01
         Cl 5.622449461319993347e+00 1.554639202882911654e-16 1.405326718334274183e+01
         Na 5.642116953618375064e+00 2.240004394988530712e-17 1.682508807458193090e+01
         Cl 8.406256853198016188e+00 2.793469732422004359e+00 1.968653026757799296e+01
         Na 5.636849854146267269e+00 2.826849854146267216e+00 1.965315014585373632e+01
         Cl 8.410420185878111354e+00 2.908129420447469407e-16 1.687957981412189312e+01
         Na 8.464911925418070027e+00 -2.991153055849153512e-17 1.964788304638162231e+01
         Cl 5.603469732422004412e+00 2.793469732422004803e+00 1.688374314680199006e+01
         Na 8.440872775243137838e+00 2.817764548886737774e+00 1.684912722475686309e+01
         Cl 5.529163252811912344e+00 1.416663095072313956e-15 1.976083674718808680e+01
         Na 5.642116953618375064e+00 5.654911925418070417e+00 -2.295674062051790677e-16
         Cl 8.424728181741098609e+00 8.423353529193940759e+00 2.806818390876705038e+00
         Na 5.622526695771865590e+00 8.439248224219488392e+00 2.812526695771865537e+00
         Cl 8.410420185878111354e+00 5.600420185878109081e+00 3.373710109680766065e-16
         Na 8.440872775243137838e+00 5.630872775243136452e+00 2.817764548886737774e+00
         Cl 5.622449461319994235e+00 8.426732816657258596e+00 -1.284790523700337284e-16
         Na 8.436413779643263666e+00 8.438180939181092910e+00 -4.911368095032106165e-17
         Cl 5.603469732422004412e+00 5.596256853198015691e+00 2.793469732422005691e+00
         Na 5.627764548886740492e+00 5.630872775243137340e+00 5.630872775243137340e+00
         Cl 8.427247530788051222e+00 8.427296636990973866e+00 8.427296636990973866e+00
         Na 5.622078956372869918e+00 8.433756602111110112e+00 8.433756602111110112e+00
         Cl 8.422636051119104295e+00 5.612636051119100244e+00 5.612636051119101133e+00
         Na 8.433827289024966589e+00 5.623827289024966980e+00 8.434581258354725719e+00
         Cl 5.616818390876704647e+00 8.423353529193940759e+00 5.614728181741098112e+00
         Na 8.433827289024966589e+00 8.434581258354725719e+00 5.623827289024966980e+00
         Cl 5.616818390876704647e+00 5.614728181741098112e+00 8.423353529193940759e+00
         Na 5.621778736003383514e+00 5.623086147122068112e+00 1.124000000000000021e+01
         Cl 8.427247530788051222e+00 8.427296636990972090e+00 1.405270336300902656e+01
         Na 5.622078956372870806e+00 8.433756602111108336e+00 1.404624339788889209e+01
         Cl 8.427177021753859520e+00 5.617177021753858135e+00 1.124000000000000021e+01
         Na 8.433827289024966589e+00 5.623827289024966980e+00 1.404541874164527471e+01
         Cl 5.618333849806137259e+00 8.427556807537474270e+00 1.124000000000000021e+01
         Na 8.432205784764081002e+00 8.431990504181118951e+00 1.124000000000000021e+01
         Cl 5.616818390876705536e+00 5.614728181741098112e+00 1.405664647080606144e+01
         Na 5.627764548886739604e+00 5.630872775243135564e+00 1.684912722475686309e+01
         Cl 8.424728181741098609e+00 8.423353529193940759e+00 1.967318160912329716e+01
         Na 5.622526695771865590e+00 8.439248224219490169e+00 1.966747330422813889e+01
         Cl 8.422636051119104295e+00 5.612636051119101133e+00 1.686736394888090373e+01
         Na 8.440872775243139614e+00 5.630872775243138229e+00 1.966223545111326132e+01
         Cl 5.616818390876704647e+00 8.423353529193940759e+00 1.686527181825890054e+01
         Na 8.433827289024966589e+00 8.434581258354727495e+00 1.685617271097503433e+01
         Cl 5.603469732422004412e+00 5.596256853198013914e+00 1.968653026757799296e+01
         Na 5.623261924014546942e+00 1.124000000000000021e+01 6.637480085199433616e-16
         Cl 8.424728181741098609e+00 1.405664647080605967e+01 2.806818390876705926e+00
         Na 5.622526695771866478e+00 1.404075177578051203e+01 2.812526695771865537e+00
         Cl 8.427544363000409433e+00 1.124000000000000021e+01 1.132843142030826071e-15
         Na 8.433086147122068610e+00 1.124000000000000021e+01 2.811778736003384349e+00
         Cl 5.622449461319993347e+00 1.405326718334274183e+01 1.321662249572123080e-16
         Na 8.436413779643263666e+00 1.404181906081890752e+01 1.955086011510872467e-16
         Cl 5.618076260760851426e+00 1.124000000000000021e+01 2.808076260760852261e+00
         Na 5.621778736003383514e+00 1.124000000000000021e+01 5.623086147122068112e+00
         Cl 8.427247530788051222e+00 1.405270336300902656e+01 8.427296636990972090e+00
         Na 5.622078956372870806e+00 1.404624339788889209e+01 8.433756602111108336e+00
         Cl 8.427177021753859520e+00 1.124000000000000021e+01 5.617177021753858135e+00
         Na 8.432205784764081002e+00 1.124000000000000021e+01 8.431990504181118951e+00
         Cl 5.616818390876705536e+00 1.405664647080606144e+01 5.614728181741098112e+00
         Na 8.433827289024966589e+00 1.404541874164527471e+01 5.623827289024966980e+00
         Cl 5.618333849806138147e+00 1.124000000000000021e+01 8.427556807537474270e+00
         Na 5.621449927641549493e+00 1.124000000000000021e+01 1.124000000000000021e+01
         Cl 8.427247530788051222e+00 1.405270336300902656e+01 1.405270336300902656e+01
         Na 5.622078956372870806e+00 1.404624339788889209e+01 1.404624339788889209e+01
         Cl 8.428001266316888618e+00 1.124000000000000021e+01 1.124000000000000021e+01
         Na 8.432205784764081002e+00 1.124000000000000021e+01 1.404800949581888148e+01
         Cl 5.618333849806139035e+00 1.405244319246252616e+01 1.124000000000000021e+01
         Na 8.432205784764081002e+00 1.404800949581888148e+01 1.124000000000000021e+01
         Cl 5.618333849806138147e+00 1.124000000000000021e+01 1.405244319246252616e+01
         Na 5.621778736003385291e+00 1.124000000000000021e+01 1.685691385287793054e+01
         Cl 8.424728181741096833e+00 1.405664647080605967e+01 1.967318160912329716e+01
         Na 5.622526695771866478e+00 1.404075177578051026e+01 1.966747330422813889e+01
         Cl 8.427177021753859520e+00 1.124000000000000021e+01 1.686282297824614318e+01
         Na 8.433086147122068610e+00 1.124000000000000021e+01 1.966822126399662096e+01
         Cl 5.616818390876706424e+00 1.405664647080605967e+01 1.686527181825890054e+01
         Na 8.433827289024964813e+00 1.404541874164527471e+01 1.685617271097503789e+01
         Cl 5.618076260760853202e+00 1.124000000000000021e+01 1.967192373923914772e+01
         Na 5.642116953618375064e+00 1.682508807458193090e+01 -1.224519662084371759e-16
         Cl 8.406256853198016188e+00 1.968653026757799296e+01 2.793469732422004359e+00
         Na 5.636849854146267269e+00 1.965315014585373632e+01 2.826849854146267216e+00
         Cl 8.410420185878111354e+00 1.687957981412189312e+01 4.415359737431299161e-16
         Na 8.440872775243137838e+00 1.684912722475686309e+01 2.817764548886738218e+00
         Cl 5.529163252811912344e+00 1.976083674718808680e+01 1.320924967284267712e-15
         Na 8.464911925418070027e+00 1.964788304638162231e+01 -1.126174552061442773e-16
         Cl 5.603469732422004412e+00 1.688374314680199006e+01 2.793469732422004803e+00
         Na 5.627764548886739604e+00 1.684912722475686309e+01 5.630872775243135564e+00
         Cl 8.424728181741098609e+00 1.967318160912329716e+01 8.423353529193940759e+00
         Na 5.622526695771865590e+00 1.966747330422813889e+01 8.439248224219490169e+00
         Cl 8.422636051119104295e+00 1.686736394888090373e+01 5.612636051119102021e+00
         Na 8.433827289024966589e+00 1.685617271097503789e+01 8.434581258354727495e+00
         Cl 5.603469732422004412e+00 1.968653026757799296e+01 5.596256853198014802e+00
         Na 8.440872775243139614e+00 1.966223545111326132e+01 5.630872775243138229e+00
         Cl 5.616818390876705536e+00 1.686527181825890054e+01 8.423353529193940759e+00
         Na 5.621778736003385291e+00 1.685691385287793054e+01 1.124000000000000021e+01
         Cl 8.424728181741098609e+00 1.967318160912329716e+01 1.405664647080605967e+01
         Na 5.622526695771866478e+00 1.966747330422813889e+01 1.404075177578051203e+01
         Cl 8.427177021753859520e+00 1.686282297824614318e+01 1.124000000000000021e+01
         Na 8.433827289024966589e+00 1.685617271097503789e+01 1.404541874164527293e+01
         Cl 5.618076260760852314e+00 1.967192373923914772e+01 1.124000000000000021e+01
         Na 8.433086147122068610e+00 1.966822126399662096e+01 1.124000000000000021e+01
         Cl 5.616818390876706424e+00 1.686527181825890054e+01 1.405664647080605967e+01
         Na 5.627764548886739604e+00 1.684912722475686309e+01 1.684912722475686309e+01
         Cl 8.406256853198016188e+00 1.968653026757799651e+01 1.968653026757799651e+01
         Na 5.636849854146267269e+00 1.965315014585373632e+01 1.965315014585373632e+01
         Cl 8.422636051119102518e+00 1.686736394888090373e+01 1.686736394888090373e+01
         Na 8.440872775243139614e+00 1.684912722475686309e+01 1.966223545111326132e+01
         Cl 5.603469732422004412e+00 1.968653026757799651e+01 1.688374314680199006e+01
         Na 8.440872775243139614e+00 1.966223545111326132e+01 1.684912722475686309e+01
         Cl 5.603469732422003524e+00 1.688374314680199006e+01 1.968653026757799651e+01
         Na 1.126270811176902065e+01 -5.846226758233242990e-16 -6.607900702783865702e-16
         Cl 1.405000000000000071e+01 2.808076260760851373e+00 2.808076260760851373e+00
         Na 1.124924822421949067e+01 2.812526695771865537e+00 2.812526695771865537e+00
         Cl 1.405000000000000071e+01 3.558305964391865913e-16 3.818329811066056370e-16
         Na 1.405000000000000071e+01 4.013881175707963655e-16 2.813261924014546445e+00
         Cl 1.123673281665725909e+01 2.812449461319994182e+00 4.623793000879774997e-17
         Na 1.405000000000000071e+01 2.813261924014546445e+00 3.720714126810231082e-16
         Cl 1.123673281665725909e+01 -1.742560291672503948e-17 2.812449461319994182e+00
         Na 1.124818093918109518e+01 -2.328981587696056430e-16 5.626413779643264057e+00
         Cl 1.405000000000000071e+01 2.808333849806138982e+00 8.427556807537474270e+00
         Na 1.124375660211111061e+01 2.812078956372869865e+00 8.433756602111108336e+00
         Cl 1.405000000000000071e+01 1.276881076400517182e-15 5.617544363000408936e+00
         Na 1.405000000000000071e+01 -2.277407612373006114e-16 8.432762600730669078e+00
         Cl 1.123335352919394126e+01 2.806818390876704594e+00 5.614728181741097224e+00
         Na 1.405000000000000071e+01 2.811778736003384793e+00 5.623086147122069001e+00
         Cl 1.123540799102205412e+01 2.903837167234959287e-18 8.425407991022053622e+00
         Na 1.124276260073066780e+01 -2.163434347172626534e-17 1.124000000000000021e+01
         Cl 1.405000000000000071e+01 2.808333849806139426e+00 1.405244319246252616e+01
         Na 1.124375660211110883e+01 2.812078956372870309e+00 1.404624339788889209e+01
         Cl 1.405000000000000071e+01 2.801529434911814808e-16 1.124000000000000021e+01
         Na 1.405000000000000071e+01 9.564173472601118636e-17 1.404723739926933135e+01
         Cl 1.123755680753747299e+01 2.808333849806139870e+00 1.124000000000000021e+01
         Na 1.405000000000000071e+01 2.811449927641549440e+00 1.124000000000000021e+01
         Cl 1.123540799102205412e+01 2.047072647161537471e-16 1.405459200897794325e+01
         Na 1.124818093918109518e+01 2.932789429575589460e-16 1.685358622035673548e+01
         Cl 1.405000000000000071e+01 2.808076260760851373e+00 1.967192373923914772e+01
         Na 1.124924822421949067e+01 2.812526695771865537e+00 1.966747330422813889e+01
         Cl 1.405000000000000071e+01 9.633823695797831188e-16 1.686245563699959149e+01
         Na 1.405000000000000071e+01 6.226227964366785468e-16 1.966673807598545309e+01
         Cl 1.123335352919394126e+01 2.806818390876705038e+00 1.686527181825890054e+01
         Na 1.405000000000000071e+01 2.811778736003385681e+00 1.685691385287793054e+01
         Cl 1.123673281665726087e+01 -1.496112637839819325e-16 1.966755053868000402e+01
         Na 1.124818093918109518e+01 5.626413779643264057e+00 2.422961374197421228e-17
         Cl 1.405000000000000071e+01 8.427556807537474270e+00 2.808333849806138982e+00
         Na 1.124375660211111061e+01 8.433756602111110112e+00 2.812078956372870309e+00
         Cl 1.405000000000000071e+01 5.617544363000408936e+00 1.283483722480469404e-15
         Na 1.405000000000000071e+01 5.623086147122069889e+00 2.811778736003384793e+00
         Cl 1.123540799102205412e+01 8.425407991022053622e+00 3.339244567008751360e-17
         Na 1.405000000000000071e+01 8.432762600730669078e+00 -2.889835442361733656e-16
         Cl 1.123335352919394126e+01 5.614728181741098112e+00 2.806818390876704594e+00
         Na 1.124458125835472799e+01 5.623827289024967868e+00 5.623827289024966980e+00
         Cl 1.405000000000000071e+01 8.428441883952457303e+00 8.428441883952457303e+00
         Na 1.124182991182373392e+01 8.431829911823733426e+00 8.431829911823733426e+00
         Cl 1.405000000000000071e+01 5.617177021753859023e+00 5.617177021753857247e+00
         Na 1.405000000000000071e+01 5.622205784764081393e+00 8.431990504181118951e+00
         Cl 1.123729663699097436e+01 8.427296636990973866e+00 5.617247530788049836e+00
         Na 1.405000000000000071e+01 8.431990504181118951e+00 5.622205784764080505e+00
         Cl 1.123729663699097436e+01 5.617247530788049836e+00 8.427296636990973866e+00
         Na 1.124199050418111945e+01 5.622205784764081393e+00 1.124000000000000021e+01
         Cl 1.405000000000000071e+01 8.428441883952457303e+00 1.405155811604754135e+01
         Na 1.124182991182373392e+01 8.431829911823733426e+00 1.404817008817626522e+01
         Cl 1.405000000000000071e+01 5.618001266316889009e+00 1.124000000000000021e+01
         Na 1.405000000000000071e+01 5.622205784764080505e+00 1.404800949581888325e+01
         Cl 1.123844188395245780e+01 8.428441883952457303e+00 1.124000000000000021e+01
         Na 1.405000000000000071e+01 8.431357577245924162e+00 1.124000000000000021e+01
         Cl 1.123729663699097259e+01 5.617247530788050724e+00 1.405270336300902656e+01
         Na 1.124458125835472799e+01 5.623827289024966980e+00 1.685617271097503433e+01
         Cl 1.405000000000000071e+01 8.427556807537474270e+00 1.967166615019386100e+01
         Na 1.124375660211111061e+01 8.433756602111110112e+00 1.966792104362713189e+01
         Cl 1.405000000000000071e+01 5.617177021753859023e+00 1.686282297824614318e+01
         Na 1.405000000000000071e+01 5.623086147122069889e+00 1.966822126399661741e+01
         Cl 1.123729663699097259e+01 8.427296636990975642e+00 1.686275246921195503e+01
         Na 1.405000000000000071e+01 8.431990504181117174e+00 1.685779421523591992e+01
         Cl 1.123335352919394126e+01 5.614728181741098112e+00 1.967318160912329716e+01
         Na 1.124276260073066780e+01 1.124000000000000021e+01 -1.730038064327319184e-16
         Cl 1.405000000000000071e+01 1.405244319246252616e+01 2.808333849806138982e+00
         Na 1.124375660211110883e+01 1.404624339788889031e+01 2.812078956372869865e+00
         Cl 1.405000000000000071e+01 1.124000000000000021e+01 4.428441368194025212e-16
         Na 1.405000000000000071e+01 1.124000000000000021e+01 2.811449927641549440e+00
         Cl 1.123540799102205412e+01 1.405459200897794325e+01 4.228266143056979067e-16
         Na 1.405000000000000071e+01 1.404723739926933135e+01 8.760283983440730093e-17
         Cl 1.123755680753747299e+01 1.124000000000000021e+01 2.808333849806139426e+00
         Na 1.124199050418111945e+01 1.124000000000000021e+01 5.622205784764081393e+00