!!! Generated by ASE !!!
&FORCE_EVAL
   METHOD Fist
   &MM
      &FORCEFIELD
         &CHARGE
            ATOM Na
            CHARGE +1.000
         &END CHARGE
         &CHARGE
            ATOM Cl
            CHARGE -1.000
         &END CHARGE
         &NONBONDED
            &BMHFT
               map_atoms NA NA
               atoms NA NA
               RCUT 10.0
            &END BMHFT
            &BMHFT
               map_atoms NA CL
               atoms NA CL
               RCUT 10.0
            &END BMHFT
            &BMHFT
               map_atoms CL CL
               atoms CL CL
               RCUT 10.0
            &END BMHFT
         &END NONBONDED
      &END FORCEFIELD
      &POISSON
         &EWALD
            EWALD_TYPE spme
            ALPHA .5
            GMAX 40
            O_SPLINE 6
         &END EWALD
      &END POISSON
   &END MM
   &SUBSYS
      &CELL
         ABC 22.480 22.480 22.480
         PERIODIC XYZ
         A 2.248000000000000043e+01 0.000000000000000000e+00 0.000000000000000000e+00
         B 0.000000000000000000e+00 2.248000000000000043e+01 0.000000000000000000e+00
         C 0.000000000000000000e+00 0.000000000000000000e+00 2.248000000000000043e+01
      &END CELL
      &TOPOLOGY
         &GENERATE
            BONDLENGTH_MAX [bohr] 6.5
         &END GENERATE
      &END TOPOLOGY
      &COORD
         Na 0.000000000000000000e+00 0.000000000000000000e+00 0.000000000000000000e+00
         Na 0.000000000000000000e+00 2.810000000000000053e+00 2.810000000000000053e+00
         Cl 2.810000000000000053e+00 2.810000000000000053e+00 2.810000000000000053e+00
         Na 2.810000000000000053e+00 0.000000000000000000e+00 2.810000000000000053e+00
         Cl 0.000000000000000000e+00 2.810000000000000053e+00 0.000000000000000000e+00
         Na 2.810000000000000053e+00 2.810000000000000053e+00 0.000000000000000000e+00
         Cl 0.000000000000000000e+00 0.000000000000000000e+00 2.810000000000000053e+00
         Na 0.000000000000000000e+00 0.000000000000000000e+00 5.620000000000000107e+00
         Cl 2.810000000000000053e+00 2.810000000000000053e+00 8.429999999999999716e+00
         Na 0.000000000000000000e+00 2.810000000000000053e+00 8.429999999999999716e+00
         Cl 2.810000000000000053e+00 0.000000000000000000e+00 5.620000000000000107e+00
         Na 2.810000000000000053e+00 0.000000000000000000e+00 8.429999999999999716e+00
         Cl 0.000000000000000000e+00 2.810000000000000053e+00 5.620000000000000107e+00
         Na 2.810000000000000053e+00 2.810000000000000053e+00 5.620000000000000107e+00
         Cl 0.000000000000000000e+00 0.000000000000000000e+00 8.429999999999999716e+00
         Na 0.000000000000000000e+00 0.000000000000000000e+00 1.124000000000000021e+01
         Cl 2.810000000000000053e+00 2.810000000000000053e+00 1.405000000000000071e+01
         Na 0.000000000000000000e+00 2.810000000000000053e+00 1.405000000000000071e+01
         Cl 2.810000000000000053e+00 0.000000000000000000e+00 1.124000000000000021e+01
         Na 2.810000000000000053e+00 0.000000000000000000e+00 1.405000000000000071e+01
         Cl 0.000000000000000000e+00 2.810000000000000053e+00 1.124000000000000021e+01
         Na 2.810000000000000053e+00 2.810000000000000053e+00 1.124000000000000021e+01
         Cl 0.000000000000000000e+00 0.000000000000000000e+00 1.405000000000000071e+01
         Na 0.000000000000000000e+00 0.000000000000000000e+00 1.685999999999999943e+01
         Cl 2.810000000000000053e+00 2.810000000000000053e+00 1.967000000000000171e+01
         Na 0.000000000000000000e+00 2.810000000000000053e+00 1.967000000000000171e+01
         Cl 2.810000000000000053e+00 0.000000000000000000e+00 1.685999999999999943e+01
         Na 2.810000000000000053e+00 0.000000000000000000e+00 1.967000000000000171e+01
         Cl 0.000000000000000000e+00 2.810000000000000053e+00 1.685999999999999943e+01
         Na 2.810000000000000053e+00 2.810000000000000053e+00 1.685999999999999943e+01
         Cl 0.000000000000000000e+00 0.000000000000000000e+00 1.967000000000000171e+01
         Na 0.000000000000000000e+00 5.620000000000000107e+00 0.000000000000000000e+00
         Cl 2.810000000000000053e+00 8.429999999999999716e+00 2.810000000000000053e+00
         Na 0.000000000000000000e+00 8.429999999999999716e+00 2.810000000000000053e+00
         Cl 2.810000000000000053e+00 5.620000000000000107e+00 0.000000000000000000e+00
         Na 2.810000000000000053e+00 5.620000000000000107e+00 2.810000000000000053e+00
         Cl 0.000000000000000000e+00 8.429999999999999716e+00 0.000000000000000000e+00
         Na 2.810000000000000053e+00 8.429999999999999716e+00 0.000000000000000000e+00
         Cl 0.000000000000000000e+00 5.620000000000000107e+00 2.810000000000000053e+00
         Na 0.000000000000000000e+00 5.620000000000000107e+00 5.620000000000000107e+00
         Cl 2.810000000000000053e+00 8.429999999999999716e+00 8.429999999999999716e+00
         Na 0.000000000000000000e+00 8.429999999999999716e+00 8.429999999999999716e+00
         Cl 2.810000000000000053e+00 5.620000000000000107e+00 5.620000000000000107e+00
         Na 2.810000000000000053e+00 5.620000000000000107e+00 8.429999999999999716e+00
         Cl 0.000000000000000000e+00 8.429999999999999716e+00 5.620000000000000107e+00
         Na 2.810000000000000053e+00 8.429999999999999716e+00 5.620000000000000107e+00
         Cl 0.000000000000000000e+00 5.620000000000000107e+00 8.429999999999999716e+00
         Na 0.000000000000000000e+00 5.620000000000000107e+00 1.124000000000000021e+01
         Cl 2.810000000000000053e+00 8.429999999999999716e+00 1.405000000000000071e+01
         Na 0.000000000000000000e+00 8.429999999999999716e+00 1.405000000000000071e+01
         Cl 2.810000000000000053e+00 5.620000000000000107e+00 1.124000000000000021e+01
         Na 2.810000000000000053e+00 5.620000000000000107e+00 1.405000000000000071e+01
         Cl 0.000000000000000000e+00 8.429999999999999716e+00 1.124000000000000021e+01
         Na 2.810000000000000053e+00 8.429999999999999716e+00 1.124000000000000021e+01
         Cl 0.000000000000000000e+00 5.620000000000000107e+00 1.405000000000000071e+01
         Na 0.000000000000000000e+00 5.620000000000000107e+00 1.685999999999999943e+01
         Cl 2.810000000000000053e+00 8.429999999999999716e+00 1.967000000000000171e+01
         Na 0.000000000000000000e+00 8.429999999999999716e+00 1.967000000000000171e+01
         Cl 2.810000000000000053e+00 5.620000000000000107e+00 1.685999999999999943e+01
         Na 2.810000000000000053e+00 5.620000000000000107e+00 1.967000000000000171e+01
         Cl 0.000000000000000000e+00 8.429999999999999716e+00 1.685999999999999943e+01
         Na 2.810000000000000053e+00 8.429999999999999716e+00 1.685999999999999943e+01
         Cl 0.000000000000000000e+00 5.620000000000000107e+00 1.967000000000000171e+01
         Na 0.000000000000000000e+00 1.124000000000000021e+01 0.000000000000000000e+00
         Cl 2.810000000000000053e+00 1.405000000000000071e+01 2.810000000000000053e+00
         Na 0.000000000000000000e+00 1.405000000000000071e+01 2.810000000000000053e+00
         Cl 2.810000000000000053e+00 1.124000000000000021e+01 0.000000000000000000e+00
         Na 2.810000000000000053e+00 1.124000000000000021e+01 2.810000000000000053e+00
         Cl 0.000000000000000000e+00 1.405000000000000071e+01 0.000000000000000000e+00
         Na 2.810000000000000053e+00 1.405000000000000071e+01 0.000000000000000000e+00
         Cl 0.000000000000000000e+00 1.124000000000000021e+01 2.810000000000000053e+00
         Na 0.000000000000000000e+00 1.124000000000000021e+01 5.620000000000000107e+00
         Cl 2.810000000000000053e+00 1.405000000000000071e+01 8.429999999999999716e+00
         Na 0.000000000000000000e+00 1.405000000000000071e+01 8.429999999999999716e+00
         Cl 2.810000000000000053e+00 1.124000000000000021e+01 5.620000000000000107e+00
         Na 2.810000000000000053e+00 1.124000000000000021e+01 8.429999999999999716e+00
         Cl 0.000000000000000000e+00 1.405000000000000071e+01 5.620000000000000107e+00
         Na 2.810000000000000053e+00 1.405000000000000071e+01 5.620000000000000107e+00
         Cl 0.000000000000000000e+00 1.124000000000000021e+01 8.429999999999999716e+00
         Na 0.000000000000000000e+00 1.124000000000000021e+01 1.124000000000000021e+01
         Cl 2.810000000000000053e+00 1.405000000000000071e+01 1.405000000000000071e+01
         Na 0.000000000000000000e+00 1.405000000000000071e+01 1.405000000000000071e+01
         Cl 2.810000000000000053e+00 1.124000000000000021e+01 1.124000000000000021e+01
         Na 2.810000000000000053e+00 1.124000000000000021e+01 1.405000000000000071e+01
         Cl 0.000000000000000000e+00 1.405000000000000071e+01 1.124000000000000021e+01
         Na 2.810000000000000053e+00 1.405000000000000071e+01 1.124000000000000021e+01
         Cl 0.000000000000000000e+00 1.124000000000000021e+01 1.405000000000000071e+01
         Na 0.000000000000000000e+00 1.124000000000000021e+01 1.685999999999999943e+01
         Cl 2.810000000000000053e+00 1.405000000000000071e+01 1.967000000000000171e+01
         Na 0.000000000000000000e+00 1.405000000000000071e+01 1.967000000000000171e+01
         Cl 2.810000000000000053e+00 1.124000000000000021e+01 1.685999999999999943e+01
         Na 2.810000000000000053e+00 1.124000000000000021e+01 1.967000000000000171e+01
         Cl 0.000000000000000000e+00 1.405000000000000071e+01 1.685999999999999943e+01
         Na 2.810000000000000053e+00 1.405000000000000071e+01 1.685999999999999943e+01
         Cl 0.000000000000000000e+00 1.124000000000000021e+01 1.967000000000000171e+01
         Na 0.000000000000000000e+00 1.685999999999999943e+01 0.000000000000000000e+00
         Cl 2.810000000000000053e+00 1.967000000000000171e+01 2.810000000000000053e+00
         Na 0.000000000000000000e+00 1.967000000000000171e+01 2.810000000000000053e+00
         Cl 2.810000000000000053e+00 1.685999999999999943e+01 0.000000000000000000e+00
         Na 2.810000000000000053e+00 1.685999999999999943e+01 2.810000000000000053e+00
         Cl 0.000000000000000000e+00 1.967000000000000171e+01 0.000000000000000000e+00
         Na 2.810000000000000053e+00 1.967000000000000171e+01 0.000000000000000000e+00
         Cl 0.000000000000000000e+00 1.685999999999999943e+01 2.810000000000000053e+00
         Na 0.000000000000000000e+00 1.685999999999999943e+01 5.620000000000000107e+00
         Cl 2.810000000000000053e+00 1.967000000000000171e+01 8.429999999999999716e+00
         Na 0.000000000000000000e+00 1.967000000000000171e+01 8.429999999999999716e+00
         Cl 2.810000000000000053e+00 1.685999999999999943e+01 5.620000000000000107e+00
         Na 2.810000000000000053e+00 1.685999999999999943e+01 8.429999999999999716e+00
         Cl 0.000000000000000000e+00 1.967000000000000171e+01 5.620000000000000107e+00
         Na 2.810000000000000053e+00 1.967000000000000171e+01 5.620000000000000107e+00
         Cl 0.000000000000000000e+00 1.685999999999999943e+01 8.429999999999999716e+00
         Na 0.000000000000000000e+00 1.685999999999999943e+01 1.124000000000000021e+01
         Cl 2.810000000000000053e+00 1.967000000000000171e+01 1.405000000000000071e+01
         Na 0.000000000000000000e+00 1.967000000000000171e+01 1.405000000000000071e+01
         Cl 2.810000000000000053e+00 1.685999999999999943e+01 1.124000000000000021e+01
         Na 2.810000000000000053e+00 1.685999999999999943e+01 1.405000000000000071e+01
         Cl 0.000000000000000000e+00 1.967000000000000171e+01 1.124000000000000021e+01
         Na 2.810000000000000053e+00 1.967000000000000171e+01 1.124000000000000021e+01
         Cl 0.000000000000000000e+00 1.685999999999999943e+01 1.405000000000000071e+01
         Na 0.000000000000000000e+00 1.685999999999999943e+01 1.685999999999999943e+01
         Cl 2.810000000000000053e+00 1.967000000000000171e+01 1.967000000000000171e+01
         Na 0.000000000000000000e+00 1.967000000000000171e+01 1.967000000000000171e+01
         Cl 2.810000000000000053e+00 1.685999999999999943e+01 1.685999999999999943e+01
         Na 2.810000000000000053e+00 1.685999999999999943e+01 1.967000000000000171e+01
         Cl 0.000000000000000000e+00 1.967000000000000171e+01 1.685999999999999943e+01
         Na 2.810000000000000053e+00 1.967000000000000171e+01 1.685999999999999943e+01
         Cl 0.000000000000000000e+00 1.685999999999999943e+01 1.967000000000000171e+01
         Na 5.620000000000000107e+00 0.000000000000000000e+00 0.000000000000000000e+00
         Cl 8.429999999999999716e+00 2.810000000000000053e+00 2.810000000000000053e+00
         Na 5.620000000000000107e+00 2.810000000000000053e+00 2.810000000000000053e+00
         Cl 8.429999999999999716e+00 0.000000000000000000e+00 0.000000000000000000e+00
         Na 8.429999999999999716e+00 0.000000000000000000e+00 2.810000000000000053e+00
         Cl 5.620000000000000107e+00 2.810000000000000053e+00 0.000000000000000000e+00
         Na 8.429999999999999716e+00 2.810000000000000053e+00 0.000000000000000000e+00
         Cl 5.620000000000000107e+00 0.000000000000000000e+00 2.810000000000000053e+00
         Na 5.620000000000000107e+00 0.000000000000000000e+00 5.620000000000000107e+00
         Cl 8.429999999999999716e+00 2.810000000000000053e+00 8.429999999999999716e+00
         Na 5.620000000000000107e+00 2.810000000000000053e+00 8.429999999999999716e+00
         Cl 8.429999999999999716e+00 0.000000000000000000e+00 5.620000000000000107e+00
         Na 8.429999999999999716e+00 0.000000000000000000e+00 8.429999999999999716e+00
         Cl 5.620000000000000107e+00 2.810000000000000053e+00 5.620000000000000107e+00
         Na 8.429999999999999716e+00 2.810000000000000053e+00 5.620000000000000107e+00
         Cl 5.620000000000000107e+00 0.000000000000000000e+00 8.429999999999999716e+00
         Na 5.620000000000000107e+00 0.000000000000000000e+00 1.124000000000000021e+01
         Cl 8.429999999999999716e+00 2.810000000000000053e+00 1.405000000000000071e+01
         Na 5.620000000000000107e+00 2.810000000000000053e+00 1.405000000000000071e+01
         Cl 8.429999999999999716e+00 0.000000000000000000e+00 1.124000000000000021e+01
         Na 8.429999999999999716e+00 0.000000000000000000e+00 1.405000000000000071e+01
         Cl 5.620000000000000107e+00 2.810000000000000053e+00 1.124000000000000021e+01
         Na 8.429999999999999716e+00 2.810000000000000053e+00 1.124000000000000021e+01
         Cl 5.620000000000000107e+00 0.000000000000000000e+00 1.405000000000000071e+01
         Na 5.620000000000000107e+00 0.000000000000000000e+00 1.685999999999999943e+01
         Cl 8.429999999999999716e+00 2.810000000000000053e+00 1.967000000000000171e+01
         Na 5.620000000000000107e+00 2.810000000000000053e+00 1.967000000000000171e+01
         Cl 8.429999999999999716e+00 0.000000000000000000e+00 1.685999999999999943e+01
         Na 8.429999999999999716e+00 0.000000000000000000e+00 1.967000000000000171e+01
         Cl 5.620000000000000107e+00 2.810000000000000053e+00 1.685999999999999943e+01
         Na 8.429999999999999716e+00 2.810000000000000053e+00 1.685999999999999943e+01
         Cl 5.620000000000000107e+00 0.000000000000000000e+00 1.967000000000000171e+01
         Na 5.620000000000000107e+00 5.620000000000000107e+00 0.000000000000000000e+00
         Cl 8.429999999999999716e+00 8.429999999999999716e+00 2.810000000000000053e+00
         Na 5.620000000000000107e+00 8.429999999999999716e+00 2.810000000000000053e+00
         Cl 8.429999999999999716e+00 5.620000000000000107e+00 0.000000000000000000e+00
         Na 8.429999999999999716e+00 5.620000000000000107e+00 2.810000000000000053e+00
         Cl 5.620000000000000107e+00 8.429999999999999716e+00 0.000000000000000000e+00
         Na 8.429999999999999716e+00 8.429999999999999716e+00 0.000000000000000000e+00
         Cl 5.620000000000000107e+00 5.620000000000000107e+00 2.810000000000000053e+00
         Na 5.620000000000000107e+00 5.620000000000000107e+00 5.620000000000000107e+00
         Cl 8.429999999999999716e+00 8.429999999999999716e+00 8.429999999999999716e+00
         Na 5.620000000000000107e+00 8.429999999999999716e+00 8.429999999999999716e+00
         Cl 8.429999999999999716e+00 5.620000000000000107e+00 5.620000000000000107e+00
         Na 8.429999999999999716e+00 5.620000000000000107e+00 8.429999999999999716e+00
         Cl 5.620000000000000107e+00 8.429999999999999716e+00 5.620000000000000107e+00
         Na 8.429999999999999716e+00 8.429999999999999716e+00 5.620000000000000107e+00
         Cl 5.620000000000000107e+00 5.620000000000000107e+00 8.429999999999999716e+00
         Na 5.620000000000000107e+00 5.620000000000000107e+00 1.124000000000000021e+01
         Cl 8.429999999999999716e+00 8.429999999999999716e+00 1.405000000000000071e+01
         Na 5.620000000000000107e+00 8.429999999999999716e+00 1.405000000000000071e+01
         Cl 8.429999999999999716e+00 5.620000000000000107e+00 1.124000000000000021e+01
         Na 8.429999999999999716e+00 5.620000000000000107e+00 1.405000000000000071e+01
         Cl 5.620000000000000107e+00 8.429999999999999716e+00 1.124000000000000021e+01
         Na 8.429999999999999716e+00 8.429999999999999716e+00 1.124000000000000021e+01
         Cl 5.620000000000000107e+00 5.620000000000000107e+00 1.405000000000000071e+01
         Na 5.620000000000000107e+00 5.620000000000000107e+00 1.685999999999999943e+01
         Cl 8.429999999999999716e+00 8.429999999999999716e+00 1.967000000000000171e+01
         Na 5.620000000000000107e+00 8.429999999999999716e+00 1.967000000000000171e+01
         Cl 8.429999999999999716e+00 5.620000000000000107e+00 1.685999999999999943e+01
         Na 8.429999999999999716e+00 5.620000000000000107e+00 1.967000000000000171e+01
         Cl 5.620000000000000107e+00 8.429999999999999716e+00 1.685999999999999943e+01
         Na 8.429999999999999716e+00 8.429999999999999716e+00 1.685999999999999943e+01
         Cl 5.620000000000000107e+00 5.620000000000000107e+00 1.967000000000000171e+01
         Na 5.620000000000000107e+00 1.124000000000000021e+01 0.000000000000000000e+00
         Cl 8.429999999999999716e+00 1.405000000000000071e+01 2.810000000000000053e+00
         Na 5.620000000000000107e+00 1.405000000000000071e+01 2.810000000000000053e+00
         Cl 8.429999999999999716e+00 1.124000000000000021e+01 0.000000000000000000e+00
         Na 8.429999999999999716e+00 1.124000000000000021e+01 2.810000000000000053e+00
         Cl 5.620000000000000107e+00 1.405000000000000071e+01 0.000000000000000000e+00
         Na 8.429999999999999716e+00 1.405000000000000071e+01 0.000000000000000000e+00
         Cl 5.620000000000000107e+00 1.124000000000000021e+01 2.810000000000000053e+00
         Na 5.620000000000000107e+00 1.124000000000000021e+01 5.620000000000000107e+00
         Cl 8.429999999999999716e+00 1.405000000000000071e+01 8.429999999999999716e+00
         Na 5.620000000000000107e+00 1.405000000000000071e+01 8.429999999999999716e+00
         Cl 8.429999999999999716e+00 1.124000000000000021e+01 5.620000000000000107e+00
         Na 8.429999999999999716e+00 1.124000000000000021e+01 8.429999999999999716e+00
         Cl 5.620000000000000107e+00 1.405000000000000071e+01 5.620000000000000107e+00
         Na 8.429999999999999716e+00 1.405000000000000071e+01 5.620000000000000107e+00
         Cl 5.620000000000000107e+00 1.124000000000000021e+01 8.429999999999999716e+00
         Na 5.620000000000000107e+00 1.124000000000000021e+01 1.124000000000000021e+01
         Cl 8.429999999999999716e+00 1.405000000000000071e+01 1.405000000000000071e+01
         Na 5.620000000000000107e+00 1.405000000000000071e+01 1.405000000000000071e+01
         Cl 8.429999999999999716e+00 1.124000000000000021e+01 1.124000000000000021e+01
         Na 8.429999999999999716e+00 1.124000000000000021e+01 1.405000000000000071e+01
         Cl 5.620000000000000107e+00 1.405000000000000071e+01 1.124000000000000021e+01
         Na 8.429999999999999716e+00 1.405000000000000071e+01 1.124000000000000021e+01
         Cl 5.620000000000000107e+00 1.124000000000000021e+01 1.405000000000000071e+01
         Na 5.620000000000000107e+00 1.124000000000000021e+01 1.685999999999999943e+01
         Cl 8.429999999999999716e+00 1.405000000000000071e+01 1.967000000000000171e+01
         Na 5.620000000000000107e+00 1.405000000000000071e+01 1.967000000000000171e+01
         Cl 8.429999999999999716e+00 1.124000000000000021e+01 1.685999999999999943e+01
         Na 8.429999999999999716e+00 1.124000000000000021e+01 1.967000000000000171e+01
         Cl 5.620000000000000107e+00 1.405000000000000071e+01 1.685999999999999943e+01
         Na 8.429999999999999716e+00 1.405000000000000071e+01 1.685999999999999943e+01
         Cl 5.620000000000000107e+00 1.124000000000000021e+01 1.967000000000000171e+01
         Na 5.620000000000000107e+00 1.685999999999999943e+01 0.000000000000000000e+00
         Cl 8.429999999999999716e+00 1.967000000000000171e+01 2.810000000000000053e+00
         Na 5.620000000000000107e+00 1.967000000000000171e+01 2.810000000000000053e+00
         Cl 8.429999999999999716e+00 1.685999999999999943e+01 0.000000000000000000e+00
         Na 8.429999999999999716e+00 1.685999999999999943e+01 2.810000000000000053e+00
         Cl 5.620000000000000107e+00 1.967000000000000171e+01 0.000000000000000000e+00
         Na 8.429999999999999716e+00 1.967000000000000171e+01 0.000000000000000000e+00
         Cl 5.620000000000000107e+00 1.685999999999999943e+01 2.810000000000000053e+00
         Na 5.620000000000000107e+00 1.685999999999999943e+01 5.620000000000000107e+00
         Cl 8.429999999999999716e+00 1.967000000000000171e+01 8.429999999999999716e+00
         Na 5.620000000000000107e+00 1.967000000000000171e+01 8.429999999999999716e+00
         Cl 8.429999999999999716e+00 1.685999999999999943e+01 5.620000000000000107e+00
         Na 8.429999999999999716e+00 1.685999999999999943e+01 8.429999999999999716e+00
         Cl 5.620000000000000107e+00 1.967000000000000171e+01 5.620000000000000107e+00
         Na 8.429999999999999716e+00 1.967000000000000171e+01 5.620000000000000107e+00
         Cl 5.620000000000000107e+00 1.685999999999999943e+01 8.429999999999999716e+00
         Na 5.620000000000000107e+00 1.685999999999999943e+01 1.124000000000000021e+01
         Cl 8.429999999999999716e+00 1.967000000000000171e+01 1.405000000000000071e+01
         Na 5.620000000000000107e+00 1.967000000000000171e+01 1.405000000000000071e+01
         Cl 8.429999999999999716e+00 1.685999999999999943e+01 1.124000000000000021e+01
         Na 8.429999999999999716e+00 1.685999999999999943e+01 1.405000000000000071e+01
         Cl 5.620000000000000107e+00 1.967000000000000171e+01 1.124000000000000021e+01
         Na 8.429999999999999716e+00 1.967000000000000171e+01 1.124000000000000021e+01
         Cl 5.620000000000000107e+00 1.685999999999999943e+01 1.405000000000000071e+01
         Na 5.620000000000000107e+00 1.685999999999999943e+01 1.685999999999999943e+01
         Cl 8.429999999999999716e+00 1.967000000000000171e+01 1.967000000000000171e+01
         Na 5.620000000000000107e+00 1.967000000000000171e+01 1.967000000000000171e+01
         Cl 8.429999999999999716e+00 1.685999999999999943e+01 1.685999999999999943e+01
         Na 8.429999999999999716e+00 1.685999999999999943e+01 1.967000000000000171e+01
         Cl 5.620000000000000107e+00 1.967000000000000171e+01 1.685999999999999943e+01
         Na 8.429999999999999716e+00 1.967000000000000171e+01 1.685999999999999943e+01
         Cl 5.620000000000000107e+00 1.685999999999999943e+01 1.967000000000000171e+01
         Na 1.124000000000000021e+01 0.000000000000000000e+00 0.000000000000000000e+00
         Cl 1.405000000000000071e+01 2.810000000000000053e+00 2.810000000000000053e+00
         Na 1.124000000000000021e+01 2.810000000000000053e+00 2.810000000000000053e+00
         Cl 1.405000000000000071e+01 0.000000000000000000e+00 0.000000000000000000e+00
         Na 1.405000000000000071e+01 0.000000000000000000e+00 2.810000000000000053e+00
         Cl 1.124000000000000021e+01 2.810000000000000053e+00 0.000000000000000000e+00
         Na 1.405000000000000071e+01 2.810000000000000053e+00 0.000000000000000000e+00
         Cl 1.124000000000000021e+01 0.000000000000000000e+00 2.810000000000000053e+00
         Na 1.124000000000000021e+01 0.000000000000000000e+00 5.620000000000000107e+00
         Cl 1.405000000000000071e+01 2.810000000000000053e+00 8.429999999999999716e+00
         Na 1.124000000000000021e+01 2.810000000000000053e+00 8.429999999999999716e+00
         Cl 1.405000000000000071e+01 0.000000000000000000e+00 5.620000000000000107e+00
         Na 1.405000000000000071e+01 0.000000000000000000e+00 8.429999999999999716e+00
         Cl 1.124000000000000021e+01 2.810000000000000053e+00 5.620000000000000107e+00
         Na 1.405000000000000071e+01 2.810000000000000053e+00 5.620000000000000107e+00
         Cl 1.124000000000000021e+01 0.000000000000000000e+00 8.429999999999999716e+00
         Na 1.124000000000000021e+01 0.000000000000000000e+00 1.124000000000000021e+01
         Cl 1.405000000000000071e+01 2.810000000000000053e+00 1.405000000000000071e+01
         Na 1.124000000000000021e+01 2.810000000000000053e+00 1.405000000000000071e+01
         Cl 1.405000000000000071e+01 0.000000000000000000e+00 1.124000000000000021e+01
         Na 1.405000000000000071e+01 0.000000000000000000e+00 1.405000000000000071e+01
         Cl 1.124000000000000021e+01 2.810000000000000053e+00 1.124000000000000021e+01
         Na 1.405000000000000071e+01 2.810000000000000053e+00 1.124000000000000021e+01
         Cl 1.124000000000000021e+01 0.000000000000000000e+00 1.405000000000000071e+01
         Na 1.124000000000000021e+01 0.000000000000000000e+00 1.685999999999999943e+01
         Cl 1.405000000000000071e+01 2.810000000000000053e+00 1.967000000000000171e+01
         Na 1.124000000000000021e+01 2.810000000000000053e+00 1.967000000000000171e+01
         Cl 1.405000000000000071e+01 0.000000000000000000e+00 1.685999999999999943e+01
         Na 1.405000000000000071e+01 0.000000000000000000e+00 1.967000000000000171e+01
         Cl 1.124000000000000021e+01 2.810000000000000053e+00 1.685999999999999943e+01
         Na 1.405000000000000071e+01 2.810000000000000053e+00 1.685999999999999943e+01
         Cl 1.124000000000000021e+01 0.000000000000000000e+00 1.967000000000000171e+01
         Na 1.124000000000000021e+01 5.620000000000000107e+00 0.000000000000000000e+00
         Cl 1.405000000000000071e+01 8.429999999999999716e+00 2.810000000000000053e+00
         Na 1.124000000000000021e+01 8.429999999999999716e+00 2.810000000000000053e+00
         Cl 1.405000000000000071e+01 5.620000000000000107e+00 0.000000000000000000e+00
         Na 1.405000000000000071e+01 5.620000000000000107e+00 2.810000000000000053e+00
         Cl 1.124000000000000021e+01 8.429999999999999716e+00 0.000000000000000000e+00
         Na 1.405000000000000071e+01 8.429999999999999716e+00 0.000000000000000000e+00
         Cl 1.124000000000000021e+01 5.620000000000000107e+00 2.810000000000000053e+00
         Na 1.124000000000000021e+01 5.620000000000000107e+00 5.620000000000000107e+00
         Cl 1.405000000000000071e+01 8.429999999999999716e+00 8.429999999999999716e+00
         Na 1.124000000000000021e+01 8.429999999999999716e+00 8.429999999999999716e+00
         Cl 1.405000000000000071e+01 5.620000000000000107e+00 5.620000000000000107e+00
         Na 1.405000000000000071e+01 5.620000000000000107e+00 8.429999999999999716e+00
         Cl 1.124000000000000021e+01 8.429999999999999716e+00 5.620000000000000107e+00
         Na 1.405000000000000071e+01 8.429999999999999716e+00 5.620000000000000107e+00
         Cl 1.124000000000000021e+01 5.620000000000000107e+00 8.429999999999999716e+00
         Na 1.124000000000000021e+01 5.620000000000000107e+00 1.124000000000000021e+01
         Cl 1.405000000000000071e+01 8.429999999999999716e+00 1.405000000000000071e+01
         Na 1.124000000000000021e+01 8.429999999999999716e+00 1.405000000000000071e+01
         Cl 1.405000000000000071e+01 5.620000000000000107e+00 1.124000000000000021e+01
         Na 1.405000000000000071e+01 5.620000000000000107e+00 1.405000000000000071e+01
         Cl 1.124000000000000021e+01 8.429999999999999716e+00 1.124000000000000021e+01
         Na 1.405000000000000071e+01 8.429999999999999716e+00 1.124000000000000021e+01
         Cl 1.124000000000000021e+01 5.620000000000000107e+00 1.405000000000000071e+01
         Na 1.124000000000000021e+01 5.620000000000000107e+00 1.685999999999999943e+01
         Cl 1.405000000000000071e+01 8.429999999999999716e+00 1.967000000000000171e+01
         Na 1.124000000000000021e+01 8.429999999999999716e+00 1.967000000000000171e+01
         Cl 1.405000000000000071e+01 5.620000000000000107e+00 1.685999999999999943e+01
         Na 1.405000000000000071e+01 5.620000000000000107e+00 1.967000000000000171e+01
         Cl 1.124000000000000021e+01 8.429999999999999716e+00 1.685999999999999943e+01
         Na 1.405000000000000071e+01 8.429999999999999716e+00 1.685999999999999943e+01
         Cl 1.124000000000000021e+01 5.620000000000000107e+00 1.967000000000000171e+01
         Na 1.124000000000000021e+01 1.124000000000000021e+01 0.000000000000000000e+00
         Cl 1.405000000000000071e+01 1.405000000000000071e+01 2.810000000000000053e+00
         Na 1.124000000000000021e+01 1.405000000000000071e+01 2.810000000000000053e+00
         Cl 1.405000000000000071e+01 1.124000000000000021e+01 0.000000000000000000e+00
         Na 1.405000000000000071e+01 1.124000000000000021e+01 2.810000000000000053e+00
         Cl 1.124000000000000021e+01 1.405000000000000071e+01 0.000000000000000000e+00
         Na 1.405000000000000071e+01 1.405000000000000071e+01 0.000000000000000000e+00
         Cl 1.124000000000000021e+01 1.124000000000000021e+01 2.810000000000000053e+00
         Na 1.124000000000000021e+01 1.124000000000000021e+01 5.620000000000000107e+00
         Cl 1.405000000000000071e+01 1.405000000000000071e+01 8.429999999999999716e+00